
;this file is automatically generated: Wed Apr 21 11:03:36 CST 2021

;declarations generated

(declare-fun oclExcludes ( Int Int) Bool)
(declare-fun type_a2eb46fa_7773_4ed7_aa1b_f4e4095cde01_Class15 ( Int) Bool)
(declare-fun type_a2eb46fa_7773_4ed7_aa1b_f4e4095cde01_Class16 ( Int) Bool)
(declare-fun type_a2eb46fa_7773_4ed7_aa1b_f4e4095cde01_Class13 ( Int) Bool)
(declare-fun type_a2eb46fa_7773_4ed7_aa1b_f4e4095cde01_Class14 ( Int) Bool)
(declare-fun type_a2eb46fa_7773_4ed7_aa1b_f4e4095cde01_Class19 ( Int) Bool)
(declare-fun type_a2eb46fa_7773_4ed7_aa1b_f4e4095cde01_Class17 ( Int) Bool)
(declare-fun type_a2eb46fa_7773_4ed7_aa1b_f4e4095cde01_Class18 ( Int) Bool)
(declare-fun type_a2eb46fa_7773_4ed7_aa1b_f4e4095cde01_Class11 ( Int) Bool)
(declare-fun type_a2eb46fa_7773_4ed7_aa1b_f4e4095cde01_Class12 ( Int) Bool)
(declare-fun type_a2eb46fa_7773_4ed7_aa1b_f4e4095cde01_Class10 ( Int) Bool)
(declare-fun Cardinality ( Int) Int)
(declare-fun type_a2eb46fa_7773_4ed7_aa1b_f4e4095cde01_Class37 ( Int) Bool)
(declare-fun type_a2eb46fa_7773_4ed7_aa1b_f4e4095cde01_Class38 ( Int) Bool)
(declare-fun type_a2eb46fa_7773_4ed7_aa1b_f4e4095cde01_Class35 ( Int) Bool)
(declare-fun type_a2eb46fa_7773_4ed7_aa1b_f4e4095cde01_Class36 ( Int) Bool)
(declare-fun type_a2eb46fa_7773_4ed7_aa1b_f4e4095cde01_Class39 ( Int) Bool)
(declare-fun type_a2eb46fa_7773_4ed7_aa1b_f4e4095cde01_Class30 ( Int) Bool)
(declare-fun type_a2eb46fa_7773_4ed7_aa1b_f4e4095cde01_Class33 ( Int) Bool)
(declare-fun type_a2eb46fa_7773_4ed7_aa1b_f4e4095cde01_Class34 ( Int) Bool)
(declare-fun type_a2eb46fa_7773_4ed7_aa1b_f4e4095cde01_Class31 ( Int) Bool)
(declare-fun type_a2eb46fa_7773_4ed7_aa1b_f4e4095cde01_Class32 ( Int) Bool)
(declare-fun type_a2eb46fa_7773_4ed7_aa1b_f4e4095cde01_Class26 ( Int) Bool)
(declare-fun type_a2eb46fa_7773_4ed7_aa1b_f4e4095cde01_Class27 ( Int) Bool)
(declare-fun type_a2eb46fa_7773_4ed7_aa1b_f4e4095cde01_Class24 ( Int) Bool)
(declare-fun type_a2eb46fa_7773_4ed7_aa1b_f4e4095cde01_Class25 ( Int) Bool)
(declare-fun type_a2eb46fa_7773_4ed7_aa1b_f4e4095cde01_Class28 ( Int) Bool)
(declare-fun type_a2eb46fa_7773_4ed7_aa1b_f4e4095cde01_Class29 ( Int) Bool)
(declare-fun type_a2eb46fa_7773_4ed7_aa1b_f4e4095cde01_Class22 ( Int) Bool)
(declare-fun type_a2eb46fa_7773_4ed7_aa1b_f4e4095cde01_Class23 ( Int) Bool)
(declare-fun type_a2eb46fa_7773_4ed7_aa1b_f4e4095cde01_Class20 ( Int) Bool)
(declare-fun type_a2eb46fa_7773_4ed7_aa1b_f4e4095cde01_Class21 ( Int) Bool)
(declare-fun type_a2eb46fa_7773_4ed7_aa1b_f4e4095cde01_Class51 ( Int) Bool)
(declare-fun type_a2eb46fa_7773_4ed7_aa1b_f4e4095cde01_Class52 ( Int) Bool)
(declare-fun type_a2eb46fa_7773_4ed7_aa1b_f4e4095cde01_Class50 ( Int) Bool)
(declare-fun type_a2eb46fa_7773_4ed7_aa1b_f4e4095cde01_Class55 ( Int) Bool)
(declare-fun type_a2eb46fa_7773_4ed7_aa1b_f4e4095cde01_Class56 ( Int) Bool)
(declare-fun type_a2eb46fa_7773_4ed7_aa1b_f4e4095cde01_Class53 ( Int) Bool)
(declare-fun type_a2eb46fa_7773_4ed7_aa1b_f4e4095cde01_Class54 ( Int) Bool)
(declare-fun type_a2eb46fa_7773_4ed7_aa1b_f4e4095cde01_Class48 ( Int) Bool)
(declare-fun type_a2eb46fa_7773_4ed7_aa1b_f4e4095cde01_Class49 ( Int) Bool)
(declare-fun type_a2eb46fa_7773_4ed7_aa1b_f4e4095cde01_Class46 ( Int) Bool)
(declare-fun type_a2eb46fa_7773_4ed7_aa1b_f4e4095cde01_Class47 ( Int) Bool)
(declare-fun type_a2eb46fa_7773_4ed7_aa1b_f4e4095cde01_Class40 ( Int) Bool)
(declare-fun type_a2eb46fa_7773_4ed7_aa1b_f4e4095cde01_Class41 ( Int) Bool)
(declare-fun type_a2eb46fa_7773_4ed7_aa1b_f4e4095cde01_Class44 ( Int) Bool)
(declare-fun type_a2eb46fa_7773_4ed7_aa1b_f4e4095cde01_Class45 ( Int) Bool)
(declare-fun type_a2eb46fa_7773_4ed7_aa1b_f4e4095cde01_Class42 ( Int) Bool)
(declare-fun type_a2eb46fa_7773_4ed7_aa1b_f4e4095cde01_Class43 ( Int) Bool)
(declare-fun oclSelect ( Int Bool) Int)
(declare-fun Enum0 ( Int) Int)
(declare-fun Enum1 ( Int) Int)
(declare-fun Enum2 ( Int) Int)
(declare-fun container_ ( Int) Int)
(declare-fun oclIncludes ( Int Int) Bool)
(declare-fun type_a2eb46fa_7773_4ed7_aa1b_f4e4095cde01_Class0 ( Int) Bool)
(declare-fun type_a2eb46fa_7773_4ed7_aa1b_f4e4095cde01_Class1 ( Int) Bool)
(declare-fun type_a2eb46fa_7773_4ed7_aa1b_f4e4095cde01_Class2 ( Int) Bool)
(declare-fun type_a2eb46fa_7773_4ed7_aa1b_f4e4095cde01_Class3 ( Int) Bool)
(declare-fun type_a2eb46fa_7773_4ed7_aa1b_f4e4095cde01_Class4 ( Int) Bool)
(declare-fun type_a2eb46fa_7773_4ed7_aa1b_f4e4095cde01_Class5 ( Int) Bool)
(declare-fun ObjAt ( Int Int) Int)
(declare-fun type_a2eb46fa_7773_4ed7_aa1b_f4e4095cde01_Class6 ( Int) Bool)
(declare-fun type_a2eb46fa_7773_4ed7_aa1b_f4e4095cde01_Class7 ( Int) Bool)
(declare-fun type_a2eb46fa_7773_4ed7_aa1b_f4e4095cde01_Class8 ( Int) Bool)
(declare-fun type_a2eb46fa_7773_4ed7_aa1b_f4e4095cde01_Class9 ( Int) Bool)
(declare-fun obj_1f33d39c_a091_44e2_b1e1_ab03d5188d62 ( Int) Int)

;formula(s) generated
(assert (forall ((p Int)) (=> ( type_a2eb46fa_7773_4ed7_aa1b_f4e4095cde01_Class7 p )  (and (>= ( Enum2 ( obj_1f33d39c_a091_44e2_b1e1_ab03d5188d62 p )  )  0) (<= ( Enum2 ( obj_1f33d39c_a091_44e2_b1e1_ab03d5188d62 p )  )  6)))))
(assert (! (forall ((c1 Int)) (=> ( type_a2eb46fa_7773_4ed7_aa1b_f4e4095cde01_Class7 c1 )  (not (= ( Enum2 ( obj_1f33d39c_a091_44e2_b1e1_ab03d5188d62 c1 )  )  1) ))):named l0))
(assert (! (exists ((o Int)) (and (and (and (and (and (and ( type_a2eb46fa_7773_4ed7_aa1b_f4e4095cde01_Class0 ( obj_1f33d39c_a091_44e2_b1e1_ab03d5188d62 o )  )  ( type_a2eb46fa_7773_4ed7_aa1b_f4e4095cde01_Class44 ( obj_1f33d39c_a091_44e2_b1e1_ab03d5188d62 o )  ) ) ( type_a2eb46fa_7773_4ed7_aa1b_f4e4095cde01_Class36 ( obj_1f33d39c_a091_44e2_b1e1_ab03d5188d62 o )  ) ) ( type_a2eb46fa_7773_4ed7_aa1b_f4e4095cde01_Class35 ( obj_1f33d39c_a091_44e2_b1e1_ab03d5188d62 o )  ) ) ( type_a2eb46fa_7773_4ed7_aa1b_f4e4095cde01_Class27 ( obj_1f33d39c_a091_44e2_b1e1_ab03d5188d62 o )  ) ) ( type_a2eb46fa_7773_4ed7_aa1b_f4e4095cde01_Class15 ( obj_1f33d39c_a091_44e2_b1e1_ab03d5188d62 o )  ) ) ( type_a2eb46fa_7773_4ed7_aa1b_f4e4095cde01_Class28 ( obj_1f33d39c_a091_44e2_b1e1_ab03d5188d62 o )  ) )):named c0))
(assert (! (exists ((o Int)) ( type_a2eb46fa_7773_4ed7_aa1b_f4e4095cde01_Class1 ( obj_1f33d39c_a091_44e2_b1e1_ab03d5188d62 o )  ) ):named c1))
(assert (! (exists ((o Int)) (and (and ( type_a2eb46fa_7773_4ed7_aa1b_f4e4095cde01_Class10 ( obj_1f33d39c_a091_44e2_b1e1_ab03d5188d62 o )  )  ( type_a2eb46fa_7773_4ed7_aa1b_f4e4095cde01_Class15 ( obj_1f33d39c_a091_44e2_b1e1_ab03d5188d62 o )  ) ) ( type_a2eb46fa_7773_4ed7_aa1b_f4e4095cde01_Class21 ( obj_1f33d39c_a091_44e2_b1e1_ab03d5188d62 o )  ) )):named c2))
(assert (! (exists ((o Int)) ( type_a2eb46fa_7773_4ed7_aa1b_f4e4095cde01_Class11 ( obj_1f33d39c_a091_44e2_b1e1_ab03d5188d62 o )  ) ):named c3))
(assert (! (exists ((o Int)) (and (and ( type_a2eb46fa_7773_4ed7_aa1b_f4e4095cde01_Class12 ( obj_1f33d39c_a091_44e2_b1e1_ab03d5188d62 o )  )  ( type_a2eb46fa_7773_4ed7_aa1b_f4e4095cde01_Class33 ( obj_1f33d39c_a091_44e2_b1e1_ab03d5188d62 o )  ) ) ( type_a2eb46fa_7773_4ed7_aa1b_f4e4095cde01_Class15 ( obj_1f33d39c_a091_44e2_b1e1_ab03d5188d62 o )  ) )):named c4))
(assert (! (exists ((o Int)) ( type_a2eb46fa_7773_4ed7_aa1b_f4e4095cde01_Class13 ( obj_1f33d39c_a091_44e2_b1e1_ab03d5188d62 o )  ) ):named c5))
(assert (! (exists ((o Int)) (and (and (and (and (and (and ( type_a2eb46fa_7773_4ed7_aa1b_f4e4095cde01_Class14 ( obj_1f33d39c_a091_44e2_b1e1_ab03d5188d62 o )  )  ( type_a2eb46fa_7773_4ed7_aa1b_f4e4095cde01_Class36 ( obj_1f33d39c_a091_44e2_b1e1_ab03d5188d62 o )  ) ) ( type_a2eb46fa_7773_4ed7_aa1b_f4e4095cde01_Class35 ( obj_1f33d39c_a091_44e2_b1e1_ab03d5188d62 o )  ) ) ( type_a2eb46fa_7773_4ed7_aa1b_f4e4095cde01_Class27 ( obj_1f33d39c_a091_44e2_b1e1_ab03d5188d62 o )  ) ) ( type_a2eb46fa_7773_4ed7_aa1b_f4e4095cde01_Class9 ( obj_1f33d39c_a091_44e2_b1e1_ab03d5188d62 o )  ) ) ( type_a2eb46fa_7773_4ed7_aa1b_f4e4095cde01_Class15 ( obj_1f33d39c_a091_44e2_b1e1_ab03d5188d62 o )  ) ) ( type_a2eb46fa_7773_4ed7_aa1b_f4e4095cde01_Class28 ( obj_1f33d39c_a091_44e2_b1e1_ab03d5188d62 o )  ) )):named c6))
(assert (! (exists ((o Int)) ( type_a2eb46fa_7773_4ed7_aa1b_f4e4095cde01_Class15 ( obj_1f33d39c_a091_44e2_b1e1_ab03d5188d62 o )  ) ):named c7))
(assert (! (exists ((o Int)) ( type_a2eb46fa_7773_4ed7_aa1b_f4e4095cde01_Class16 ( obj_1f33d39c_a091_44e2_b1e1_ab03d5188d62 o )  ) ):named c8))
(assert (! (exists ((o Int)) (and (and (and (and (and (and ( type_a2eb46fa_7773_4ed7_aa1b_f4e4095cde01_Class17 ( obj_1f33d39c_a091_44e2_b1e1_ab03d5188d62 o )  )  ( type_a2eb46fa_7773_4ed7_aa1b_f4e4095cde01_Class44 ( obj_1f33d39c_a091_44e2_b1e1_ab03d5188d62 o )  ) ) ( type_a2eb46fa_7773_4ed7_aa1b_f4e4095cde01_Class36 ( obj_1f33d39c_a091_44e2_b1e1_ab03d5188d62 o )  ) ) ( type_a2eb46fa_7773_4ed7_aa1b_f4e4095cde01_Class35 ( obj_1f33d39c_a091_44e2_b1e1_ab03d5188d62 o )  ) ) ( type_a2eb46fa_7773_4ed7_aa1b_f4e4095cde01_Class27 ( obj_1f33d39c_a091_44e2_b1e1_ab03d5188d62 o )  ) ) ( type_a2eb46fa_7773_4ed7_aa1b_f4e4095cde01_Class15 ( obj_1f33d39c_a091_44e2_b1e1_ab03d5188d62 o )  ) ) ( type_a2eb46fa_7773_4ed7_aa1b_f4e4095cde01_Class28 ( obj_1f33d39c_a091_44e2_b1e1_ab03d5188d62 o )  ) )):named c9))
(assert (! (exists ((o Int)) ( type_a2eb46fa_7773_4ed7_aa1b_f4e4095cde01_Class18 ( obj_1f33d39c_a091_44e2_b1e1_ab03d5188d62 o )  ) ):named c10))
(assert (! (exists ((o Int)) (and (and (and (and (and (and ( type_a2eb46fa_7773_4ed7_aa1b_f4e4095cde01_Class19 ( obj_1f33d39c_a091_44e2_b1e1_ab03d5188d62 o )  )  ( type_a2eb46fa_7773_4ed7_aa1b_f4e4095cde01_Class36 ( obj_1f33d39c_a091_44e2_b1e1_ab03d5188d62 o )  ) ) ( type_a2eb46fa_7773_4ed7_aa1b_f4e4095cde01_Class35 ( obj_1f33d39c_a091_44e2_b1e1_ab03d5188d62 o )  ) ) ( type_a2eb46fa_7773_4ed7_aa1b_f4e4095cde01_Class27 ( obj_1f33d39c_a091_44e2_b1e1_ab03d5188d62 o )  ) ) ( type_a2eb46fa_7773_4ed7_aa1b_f4e4095cde01_Class9 ( obj_1f33d39c_a091_44e2_b1e1_ab03d5188d62 o )  ) ) ( type_a2eb46fa_7773_4ed7_aa1b_f4e4095cde01_Class15 ( obj_1f33d39c_a091_44e2_b1e1_ab03d5188d62 o )  ) ) ( type_a2eb46fa_7773_4ed7_aa1b_f4e4095cde01_Class28 ( obj_1f33d39c_a091_44e2_b1e1_ab03d5188d62 o )  ) )):named c11))
(assert (! (exists ((o Int)) (and (and (and (and (and (and ( type_a2eb46fa_7773_4ed7_aa1b_f4e4095cde01_Class2 ( obj_1f33d39c_a091_44e2_b1e1_ab03d5188d62 o )  )  ( type_a2eb46fa_7773_4ed7_aa1b_f4e4095cde01_Class36 ( obj_1f33d39c_a091_44e2_b1e1_ab03d5188d62 o )  ) ) ( type_a2eb46fa_7773_4ed7_aa1b_f4e4095cde01_Class35 ( obj_1f33d39c_a091_44e2_b1e1_ab03d5188d62 o )  ) ) ( type_a2eb46fa_7773_4ed7_aa1b_f4e4095cde01_Class27 ( obj_1f33d39c_a091_44e2_b1e1_ab03d5188d62 o )  ) ) ( type_a2eb46fa_7773_4ed7_aa1b_f4e4095cde01_Class15 ( obj_1f33d39c_a091_44e2_b1e1_ab03d5188d62 o )  ) ) ( type_a2eb46fa_7773_4ed7_aa1b_f4e4095cde01_Class28 ( obj_1f33d39c_a091_44e2_b1e1_ab03d5188d62 o )  ) ) ( type_a2eb46fa_7773_4ed7_aa1b_f4e4095cde01_Class54 ( obj_1f33d39c_a091_44e2_b1e1_ab03d5188d62 o )  ) )):named c12))
(assert (! (exists ((o Int)) (and ( type_a2eb46fa_7773_4ed7_aa1b_f4e4095cde01_Class20 ( obj_1f33d39c_a091_44e2_b1e1_ab03d5188d62 o )  )  ( type_a2eb46fa_7773_4ed7_aa1b_f4e4095cde01_Class15 ( obj_1f33d39c_a091_44e2_b1e1_ab03d5188d62 o )  ) )):named c13))
(assert (! (exists ((o Int)) (and ( type_a2eb46fa_7773_4ed7_aa1b_f4e4095cde01_Class21 ( obj_1f33d39c_a091_44e2_b1e1_ab03d5188d62 o )  )  ( type_a2eb46fa_7773_4ed7_aa1b_f4e4095cde01_Class15 ( obj_1f33d39c_a091_44e2_b1e1_ab03d5188d62 o )  ) )):named c14))
(assert (! (exists ((o Int)) (and (and (and ( type_a2eb46fa_7773_4ed7_aa1b_f4e4095cde01_Class22 ( obj_1f33d39c_a091_44e2_b1e1_ab03d5188d62 o )  )  ( type_a2eb46fa_7773_4ed7_aa1b_f4e4095cde01_Class15 ( obj_1f33d39c_a091_44e2_b1e1_ab03d5188d62 o )  ) ) ( type_a2eb46fa_7773_4ed7_aa1b_f4e4095cde01_Class48 ( obj_1f33d39c_a091_44e2_b1e1_ab03d5188d62 o )  ) ) ( type_a2eb46fa_7773_4ed7_aa1b_f4e4095cde01_Class43 ( obj_1f33d39c_a091_44e2_b1e1_ab03d5188d62 o )  ) )):named c15))
(assert (! (exists ((o Int)) ( type_a2eb46fa_7773_4ed7_aa1b_f4e4095cde01_Class23 ( obj_1f33d39c_a091_44e2_b1e1_ab03d5188d62 o )  ) ):named c16))
(assert (! (exists ((o Int)) ( type_a2eb46fa_7773_4ed7_aa1b_f4e4095cde01_Class24 ( obj_1f33d39c_a091_44e2_b1e1_ab03d5188d62 o )  ) ):named c17))
(assert (! (exists ((o Int)) (and (and (and ( type_a2eb46fa_7773_4ed7_aa1b_f4e4095cde01_Class25 ( obj_1f33d39c_a091_44e2_b1e1_ab03d5188d62 o )  )  ( type_a2eb46fa_7773_4ed7_aa1b_f4e4095cde01_Class12 ( obj_1f33d39c_a091_44e2_b1e1_ab03d5188d62 o )  ) ) ( type_a2eb46fa_7773_4ed7_aa1b_f4e4095cde01_Class33 ( obj_1f33d39c_a091_44e2_b1e1_ab03d5188d62 o )  ) ) ( type_a2eb46fa_7773_4ed7_aa1b_f4e4095cde01_Class15 ( obj_1f33d39c_a091_44e2_b1e1_ab03d5188d62 o )  ) )):named c18))
(assert (! (exists ((o Int)) ( type_a2eb46fa_7773_4ed7_aa1b_f4e4095cde01_Class26 ( obj_1f33d39c_a091_44e2_b1e1_ab03d5188d62 o )  ) ):named c19))
(assert (! (exists ((o Int)) (and ( type_a2eb46fa_7773_4ed7_aa1b_f4e4095cde01_Class27 ( obj_1f33d39c_a091_44e2_b1e1_ab03d5188d62 o )  )  ( type_a2eb46fa_7773_4ed7_aa1b_f4e4095cde01_Class15 ( obj_1f33d39c_a091_44e2_b1e1_ab03d5188d62 o )  ) )):named c20))
(assert (! (exists ((o Int)) (and (and ( type_a2eb46fa_7773_4ed7_aa1b_f4e4095cde01_Class28 ( obj_1f33d39c_a091_44e2_b1e1_ab03d5188d62 o )  )  ( type_a2eb46fa_7773_4ed7_aa1b_f4e4095cde01_Class27 ( obj_1f33d39c_a091_44e2_b1e1_ab03d5188d62 o )  ) ) ( type_a2eb46fa_7773_4ed7_aa1b_f4e4095cde01_Class15 ( obj_1f33d39c_a091_44e2_b1e1_ab03d5188d62 o )  ) )):named c21))
(assert (! (exists ((o Int)) (and (and (and (and (and ( type_a2eb46fa_7773_4ed7_aa1b_f4e4095cde01_Class29 ( obj_1f33d39c_a091_44e2_b1e1_ab03d5188d62 o )  )  ( type_a2eb46fa_7773_4ed7_aa1b_f4e4095cde01_Class36 ( obj_1f33d39c_a091_44e2_b1e1_ab03d5188d62 o )  ) ) ( type_a2eb46fa_7773_4ed7_aa1b_f4e4095cde01_Class35 ( obj_1f33d39c_a091_44e2_b1e1_ab03d5188d62 o )  ) ) ( type_a2eb46fa_7773_4ed7_aa1b_f4e4095cde01_Class27 ( obj_1f33d39c_a091_44e2_b1e1_ab03d5188d62 o )  ) ) ( type_a2eb46fa_7773_4ed7_aa1b_f4e4095cde01_Class15 ( obj_1f33d39c_a091_44e2_b1e1_ab03d5188d62 o )  ) ) ( type_a2eb46fa_7773_4ed7_aa1b_f4e4095cde01_Class28 ( obj_1f33d39c_a091_44e2_b1e1_ab03d5188d62 o )  ) )):named c22))
(assert (! (exists ((o Int)) ( type_a2eb46fa_7773_4ed7_aa1b_f4e4095cde01_Class3 ( obj_1f33d39c_a091_44e2_b1e1_ab03d5188d62 o )  ) ):named c23))
(assert (! (exists ((o Int)) (and (and ( type_a2eb46fa_7773_4ed7_aa1b_f4e4095cde01_Class30 ( obj_1f33d39c_a091_44e2_b1e1_ab03d5188d62 o )  )  ( type_a2eb46fa_7773_4ed7_aa1b_f4e4095cde01_Class33 ( obj_1f33d39c_a091_44e2_b1e1_ab03d5188d62 o )  ) ) ( type_a2eb46fa_7773_4ed7_aa1b_f4e4095cde01_Class15 ( obj_1f33d39c_a091_44e2_b1e1_ab03d5188d62 o )  ) )):named c24))
(assert (! (exists ((o Int)) (and (and (and (and (and (and ( type_a2eb46fa_7773_4ed7_aa1b_f4e4095cde01_Class31 ( obj_1f33d39c_a091_44e2_b1e1_ab03d5188d62 o )  )  ( type_a2eb46fa_7773_4ed7_aa1b_f4e4095cde01_Class36 ( obj_1f33d39c_a091_44e2_b1e1_ab03d5188d62 o )  ) ) ( type_a2eb46fa_7773_4ed7_aa1b_f4e4095cde01_Class35 ( obj_1f33d39c_a091_44e2_b1e1_ab03d5188d62 o )  ) ) ( type_a2eb46fa_7773_4ed7_aa1b_f4e4095cde01_Class27 ( obj_1f33d39c_a091_44e2_b1e1_ab03d5188d62 o )  ) ) ( type_a2eb46fa_7773_4ed7_aa1b_f4e4095cde01_Class15 ( obj_1f33d39c_a091_44e2_b1e1_ab03d5188d62 o )  ) ) ( type_a2eb46fa_7773_4ed7_aa1b_f4e4095cde01_Class28 ( obj_1f33d39c_a091_44e2_b1e1_ab03d5188d62 o )  ) ) ( type_a2eb46fa_7773_4ed7_aa1b_f4e4095cde01_Class54 ( obj_1f33d39c_a091_44e2_b1e1_ab03d5188d62 o )  ) )):named c25))
(assert (! (exists ((o Int)) ( type_a2eb46fa_7773_4ed7_aa1b_f4e4095cde01_Class32 ( obj_1f33d39c_a091_44e2_b1e1_ab03d5188d62 o )  ) ):named c26))
(assert (! (exists ((o Int)) (and ( type_a2eb46fa_7773_4ed7_aa1b_f4e4095cde01_Class33 ( obj_1f33d39c_a091_44e2_b1e1_ab03d5188d62 o )  )  ( type_a2eb46fa_7773_4ed7_aa1b_f4e4095cde01_Class15 ( obj_1f33d39c_a091_44e2_b1e1_ab03d5188d62 o )  ) )):named c27))
(assert (! (exists ((o Int)) ( type_a2eb46fa_7773_4ed7_aa1b_f4e4095cde01_Class34 ( obj_1f33d39c_a091_44e2_b1e1_ab03d5188d62 o )  ) ):named c28))
(assert (! (exists ((o Int)) (and (and (and (and ( type_a2eb46fa_7773_4ed7_aa1b_f4e4095cde01_Class35 ( obj_1f33d39c_a091_44e2_b1e1_ab03d5188d62 o )  )  ( type_a2eb46fa_7773_4ed7_aa1b_f4e4095cde01_Class36 ( obj_1f33d39c_a091_44e2_b1e1_ab03d5188d62 o )  ) ) ( type_a2eb46fa_7773_4ed7_aa1b_f4e4095cde01_Class27 ( obj_1f33d39c_a091_44e2_b1e1_ab03d5188d62 o )  ) ) ( type_a2eb46fa_7773_4ed7_aa1b_f4e4095cde01_Class15 ( obj_1f33d39c_a091_44e2_b1e1_ab03d5188d62 o )  ) ) ( type_a2eb46fa_7773_4ed7_aa1b_f4e4095cde01_Class28 ( obj_1f33d39c_a091_44e2_b1e1_ab03d5188d62 o )  ) )):named c29))
(assert (! (exists ((o Int)) (and (and (and ( type_a2eb46fa_7773_4ed7_aa1b_f4e4095cde01_Class36 ( obj_1f33d39c_a091_44e2_b1e1_ab03d5188d62 o )  )  ( type_a2eb46fa_7773_4ed7_aa1b_f4e4095cde01_Class27 ( obj_1f33d39c_a091_44e2_b1e1_ab03d5188d62 o )  ) ) ( type_a2eb46fa_7773_4ed7_aa1b_f4e4095cde01_Class15 ( obj_1f33d39c_a091_44e2_b1e1_ab03d5188d62 o )  ) ) ( type_a2eb46fa_7773_4ed7_aa1b_f4e4095cde01_Class28 ( obj_1f33d39c_a091_44e2_b1e1_ab03d5188d62 o )  ) )):named c30))
(assert (! (exists ((o Int)) (and ( type_a2eb46fa_7773_4ed7_aa1b_f4e4095cde01_Class37 ( obj_1f33d39c_a091_44e2_b1e1_ab03d5188d62 o )  )  ( type_a2eb46fa_7773_4ed7_aa1b_f4e4095cde01_Class15 ( obj_1f33d39c_a091_44e2_b1e1_ab03d5188d62 o )  ) )):named c31))
(assert (! (exists ((o Int)) (and (and (and (and ( type_a2eb46fa_7773_4ed7_aa1b_f4e4095cde01_Class38 ( obj_1f33d39c_a091_44e2_b1e1_ab03d5188d62 o )  )  ( type_a2eb46fa_7773_4ed7_aa1b_f4e4095cde01_Class22 ( obj_1f33d39c_a091_44e2_b1e1_ab03d5188d62 o )  ) ) ( type_a2eb46fa_7773_4ed7_aa1b_f4e4095cde01_Class15 ( obj_1f33d39c_a091_44e2_b1e1_ab03d5188d62 o )  ) ) ( type_a2eb46fa_7773_4ed7_aa1b_f4e4095cde01_Class48 ( obj_1f33d39c_a091_44e2_b1e1_ab03d5188d62 o )  ) ) ( type_a2eb46fa_7773_4ed7_aa1b_f4e4095cde01_Class43 ( obj_1f33d39c_a091_44e2_b1e1_ab03d5188d62 o )  ) )):named c32))
(assert (! (exists ((o Int)) ( type_a2eb46fa_7773_4ed7_aa1b_f4e4095cde01_Class39 ( obj_1f33d39c_a091_44e2_b1e1_ab03d5188d62 o )  ) ):named c33))
(assert (! (exists ((o Int)) (and (and (and (and (and (and ( type_a2eb46fa_7773_4ed7_aa1b_f4e4095cde01_Class4 ( obj_1f33d39c_a091_44e2_b1e1_ab03d5188d62 o )  )  ( type_a2eb46fa_7773_4ed7_aa1b_f4e4095cde01_Class44 ( obj_1f33d39c_a091_44e2_b1e1_ab03d5188d62 o )  ) ) ( type_a2eb46fa_7773_4ed7_aa1b_f4e4095cde01_Class36 ( obj_1f33d39c_a091_44e2_b1e1_ab03d5188d62 o )  ) ) ( type_a2eb46fa_7773_4ed7_aa1b_f4e4095cde01_Class35 ( obj_1f33d39c_a091_44e2_b1e1_ab03d5188d62 o )  ) ) ( type_a2eb46fa_7773_4ed7_aa1b_f4e4095cde01_Class27 ( obj_1f33d39c_a091_44e2_b1e1_ab03d5188d62 o )  ) ) ( type_a2eb46fa_7773_4ed7_aa1b_f4e4095cde01_Class15 ( obj_1f33d39c_a091_44e2_b1e1_ab03d5188d62 o )  ) ) ( type_a2eb46fa_7773_4ed7_aa1b_f4e4095cde01_Class28 ( obj_1f33d39c_a091_44e2_b1e1_ab03d5188d62 o )  ) )):named c34))
(assert (! (exists ((o Int)) ( type_a2eb46fa_7773_4ed7_aa1b_f4e4095cde01_Class40 ( obj_1f33d39c_a091_44e2_b1e1_ab03d5188d62 o )  ) ):named c35))
(assert (! (exists ((o Int)) ( type_a2eb46fa_7773_4ed7_aa1b_f4e4095cde01_Class41 ( obj_1f33d39c_a091_44e2_b1e1_ab03d5188d62 o )  ) ):named c36))
(assert (! (exists ((o Int)) ( type_a2eb46fa_7773_4ed7_aa1b_f4e4095cde01_Class42 ( obj_1f33d39c_a091_44e2_b1e1_ab03d5188d62 o )  ) ):named c37))
(assert (! (exists ((o Int)) (and ( type_a2eb46fa_7773_4ed7_aa1b_f4e4095cde01_Class43 ( obj_1f33d39c_a091_44e2_b1e1_ab03d5188d62 o )  )  ( type_a2eb46fa_7773_4ed7_aa1b_f4e4095cde01_Class15 ( obj_1f33d39c_a091_44e2_b1e1_ab03d5188d62 o )  ) )):named c38))
(assert (! (exists ((o Int)) (and (and (and (and (and ( type_a2eb46fa_7773_4ed7_aa1b_f4e4095cde01_Class44 ( obj_1f33d39c_a091_44e2_b1e1_ab03d5188d62 o )  )  ( type_a2eb46fa_7773_4ed7_aa1b_f4e4095cde01_Class36 ( obj_1f33d39c_a091_44e2_b1e1_ab03d5188d62 o )  ) ) ( type_a2eb46fa_7773_4ed7_aa1b_f4e4095cde01_Class35 ( obj_1f33d39c_a091_44e2_b1e1_ab03d5188d62 o )  ) ) ( type_a2eb46fa_7773_4ed7_aa1b_f4e4095cde01_Class27 ( obj_1f33d39c_a091_44e2_b1e1_ab03d5188d62 o )  ) ) ( type_a2eb46fa_7773_4ed7_aa1b_f4e4095cde01_Class15 ( obj_1f33d39c_a091_44e2_b1e1_ab03d5188d62 o )  ) ) ( type_a2eb46fa_7773_4ed7_aa1b_f4e4095cde01_Class28 ( obj_1f33d39c_a091_44e2_b1e1_ab03d5188d62 o )  ) )):named c39))
(assert (! (exists ((o Int)) (and (and (and (and (and (and ( type_a2eb46fa_7773_4ed7_aa1b_f4e4095cde01_Class45 ( obj_1f33d39c_a091_44e2_b1e1_ab03d5188d62 o )  )  ( type_a2eb46fa_7773_4ed7_aa1b_f4e4095cde01_Class36 ( obj_1f33d39c_a091_44e2_b1e1_ab03d5188d62 o )  ) ) ( type_a2eb46fa_7773_4ed7_aa1b_f4e4095cde01_Class35 ( obj_1f33d39c_a091_44e2_b1e1_ab03d5188d62 o )  ) ) ( type_a2eb46fa_7773_4ed7_aa1b_f4e4095cde01_Class27 ( obj_1f33d39c_a091_44e2_b1e1_ab03d5188d62 o )  ) ) ( type_a2eb46fa_7773_4ed7_aa1b_f4e4095cde01_Class9 ( obj_1f33d39c_a091_44e2_b1e1_ab03d5188d62 o )  ) ) ( type_a2eb46fa_7773_4ed7_aa1b_f4e4095cde01_Class15 ( obj_1f33d39c_a091_44e2_b1e1_ab03d5188d62 o )  ) ) ( type_a2eb46fa_7773_4ed7_aa1b_f4e4095cde01_Class28 ( obj_1f33d39c_a091_44e2_b1e1_ab03d5188d62 o )  ) )):named c40))
(assert (! (exists ((o Int)) (and (and ( type_a2eb46fa_7773_4ed7_aa1b_f4e4095cde01_Class46 ( obj_1f33d39c_a091_44e2_b1e1_ab03d5188d62 o )  )  ( type_a2eb46fa_7773_4ed7_aa1b_f4e4095cde01_Class15 ( obj_1f33d39c_a091_44e2_b1e1_ab03d5188d62 o )  ) ) ( type_a2eb46fa_7773_4ed7_aa1b_f4e4095cde01_Class5 ( obj_1f33d39c_a091_44e2_b1e1_ab03d5188d62 o )  ) )):named c41))
(assert (! (exists ((o Int)) ( type_a2eb46fa_7773_4ed7_aa1b_f4e4095cde01_Class47 ( obj_1f33d39c_a091_44e2_b1e1_ab03d5188d62 o )  ) ):named c42))
(assert (! (exists ((o Int)) (and ( type_a2eb46fa_7773_4ed7_aa1b_f4e4095cde01_Class48 ( obj_1f33d39c_a091_44e2_b1e1_ab03d5188d62 o )  )  ( type_a2eb46fa_7773_4ed7_aa1b_f4e4095cde01_Class15 ( obj_1f33d39c_a091_44e2_b1e1_ab03d5188d62 o )  ) )):named c43))
(assert (! (exists ((o Int)) ( type_a2eb46fa_7773_4ed7_aa1b_f4e4095cde01_Class49 ( obj_1f33d39c_a091_44e2_b1e1_ab03d5188d62 o )  ) ):named c44))
(assert (! (exists ((o Int)) (and ( type_a2eb46fa_7773_4ed7_aa1b_f4e4095cde01_Class5 ( obj_1f33d39c_a091_44e2_b1e1_ab03d5188d62 o )  )  ( type_a2eb46fa_7773_4ed7_aa1b_f4e4095cde01_Class15 ( obj_1f33d39c_a091_44e2_b1e1_ab03d5188d62 o )  ) )):named c45))
(assert (! (exists ((o Int)) ( type_a2eb46fa_7773_4ed7_aa1b_f4e4095cde01_Class50 ( obj_1f33d39c_a091_44e2_b1e1_ab03d5188d62 o )  ) ):named c46))
(assert (! (exists ((o Int)) ( type_a2eb46fa_7773_4ed7_aa1b_f4e4095cde01_Class51 ( obj_1f33d39c_a091_44e2_b1e1_ab03d5188d62 o )  ) ):named c47))
(assert (! (exists ((o Int)) ( type_a2eb46fa_7773_4ed7_aa1b_f4e4095cde01_Class52 ( obj_1f33d39c_a091_44e2_b1e1_ab03d5188d62 o )  ) ):named c48))
(assert (! (exists ((o Int)) ( type_a2eb46fa_7773_4ed7_aa1b_f4e4095cde01_Class53 ( obj_1f33d39c_a091_44e2_b1e1_ab03d5188d62 o )  ) ):named c49))
(assert (! (exists ((o Int)) (and (and (and (and (and ( type_a2eb46fa_7773_4ed7_aa1b_f4e4095cde01_Class54 ( obj_1f33d39c_a091_44e2_b1e1_ab03d5188d62 o )  )  ( type_a2eb46fa_7773_4ed7_aa1b_f4e4095cde01_Class36 ( obj_1f33d39c_a091_44e2_b1e1_ab03d5188d62 o )  ) ) ( type_a2eb46fa_7773_4ed7_aa1b_f4e4095cde01_Class35 ( obj_1f33d39c_a091_44e2_b1e1_ab03d5188d62 o )  ) ) ( type_a2eb46fa_7773_4ed7_aa1b_f4e4095cde01_Class27 ( obj_1f33d39c_a091_44e2_b1e1_ab03d5188d62 o )  ) ) ( type_a2eb46fa_7773_4ed7_aa1b_f4e4095cde01_Class15 ( obj_1f33d39c_a091_44e2_b1e1_ab03d5188d62 o )  ) ) ( type_a2eb46fa_7773_4ed7_aa1b_f4e4095cde01_Class28 ( obj_1f33d39c_a091_44e2_b1e1_ab03d5188d62 o )  ) )):named c50))
(assert (! (exists ((o Int)) ( type_a2eb46fa_7773_4ed7_aa1b_f4e4095cde01_Class55 ( obj_1f33d39c_a091_44e2_b1e1_ab03d5188d62 o )  ) ):named c51))
(assert (! (exists ((o Int)) ( type_a2eb46fa_7773_4ed7_aa1b_f4e4095cde01_Class56 ( obj_1f33d39c_a091_44e2_b1e1_ab03d5188d62 o )  ) ):named c52))
(assert (! (exists ((o Int)) (and (and (and (and ( type_a2eb46fa_7773_4ed7_aa1b_f4e4095cde01_Class6 ( obj_1f33d39c_a091_44e2_b1e1_ab03d5188d62 o )  )  ( type_a2eb46fa_7773_4ed7_aa1b_f4e4095cde01_Class22 ( obj_1f33d39c_a091_44e2_b1e1_ab03d5188d62 o )  ) ) ( type_a2eb46fa_7773_4ed7_aa1b_f4e4095cde01_Class15 ( obj_1f33d39c_a091_44e2_b1e1_ab03d5188d62 o )  ) ) ( type_a2eb46fa_7773_4ed7_aa1b_f4e4095cde01_Class48 ( obj_1f33d39c_a091_44e2_b1e1_ab03d5188d62 o )  ) ) ( type_a2eb46fa_7773_4ed7_aa1b_f4e4095cde01_Class43 ( obj_1f33d39c_a091_44e2_b1e1_ab03d5188d62 o )  ) )):named c53))
(assert (! (exists ((o Int)) ( type_a2eb46fa_7773_4ed7_aa1b_f4e4095cde01_Class7 ( obj_1f33d39c_a091_44e2_b1e1_ab03d5188d62 o )  ) ):named c54))
(assert (! (exists ((o Int)) ( type_a2eb46fa_7773_4ed7_aa1b_f4e4095cde01_Class8 ( obj_1f33d39c_a091_44e2_b1e1_ab03d5188d62 o )  ) ):named c55))
(assert (! (exists ((o Int)) (and (and (and (and (and ( type_a2eb46fa_7773_4ed7_aa1b_f4e4095cde01_Class9 ( obj_1f33d39c_a091_44e2_b1e1_ab03d5188d62 o )  )  ( type_a2eb46fa_7773_4ed7_aa1b_f4e4095cde01_Class36 ( obj_1f33d39c_a091_44e2_b1e1_ab03d5188d62 o )  ) ) ( type_a2eb46fa_7773_4ed7_aa1b_f4e4095cde01_Class35 ( obj_1f33d39c_a091_44e2_b1e1_ab03d5188d62 o )  ) ) ( type_a2eb46fa_7773_4ed7_aa1b_f4e4095cde01_Class27 ( obj_1f33d39c_a091_44e2_b1e1_ab03d5188d62 o )  ) ) ( type_a2eb46fa_7773_4ed7_aa1b_f4e4095cde01_Class15 ( obj_1f33d39c_a091_44e2_b1e1_ab03d5188d62 o )  ) ) ( type_a2eb46fa_7773_4ed7_aa1b_f4e4095cde01_Class28 ( obj_1f33d39c_a091_44e2_b1e1_ab03d5188d62 o )  ) )):named c56))

 ;end of formula 